c This is the enc3 file generate by sty
p cnf 594 833
 1 2 0
 -1 -2 0
 3 4 0
 -3 -4 0
 5 6 0
 -5 -6 0
 7 8 0
 -7 -8 0
 9 10 0
 -9 -10 0
 11 12 0
 -11 -12 0
 13 14 0
 -13 -14 0
 15 16 0
 -15 -16 0
 17 18 0
 -17 -18 0
 19 20 0
 -19 -20 0
 21 22 0
 -21 -22 0
 23 24 0
 -23 -24 0
 25 26 0
 -25 -26 0
 27 28 0
 -27 -28 0
 29 30 0
 -29 -30 0
 31 32 0
 -31 -32 0
 33 34 0
 -33 -34 0
 35 36 0
 -35 -36 0
 37 38 0
 -37 -38 0
 39 40 0
 -39 -40 0
 41 42 0
 -41 -42 0
 43 44 0
 -43 -44 0
 45 46 0
 -45 -46 0
 47 48 0
 -47 -48 0
 49 50 0
 -49 -50 0
 51 52 0
 -51 -52 0
 53 54 0
 -53 -54 0
 55 56 0
 -55 -56 0
 57 58 0
 -57 -58 0
 59 60 0
 -59 -60 0
 61 62 0
 -61 -62 0
 63 64 0
 -63 -64 0
 65 66 0
 -65 -66 0
 67 68 0
 -67 -68 0
 69 70 0
 -69 -70 0
 71 72 0
 -71 -72 0
 73 74 0
 -73 -74 0
 75 76 0
 -75 -76 0
 77 78 0
 -77 -78 0
 79 80 0
 -79 -80 0
 81 82 0
 -81 -82 0
 83 84 0
 -83 -84 0
 85 86 0
 -85 -86 0
 87 88 0
 -87 -88 0
 89 90 0
 -89 -90 0
 91 92 0
 -91 -92 0
 93 94 0
 -93 -94 0
 95 96 0
 -95 -96 0
 97 98 0
 -97 -98 0
 99 100 0
 -99 -100 0
 101 102 0
 -101 -102 0
 103 104 0
 -103 -104 0
 105 106 0
 -105 -106 0
 107 108 0
 -107 -108 0
 109 110 0
 -109 -110 0
 111 112 0
 -111 -112 0
 113 114 0
 -113 -114 0
 115 116 0
 -115 -116 0
 117 118 0
 -117 -118 0
 119 120 0
 -119 -120 0
 121 122 0
 -121 -122 0
 123 124 0
 -123 -124 0
 125 126 0
 -125 -126 0
 127 128 0
 -127 -128 0
 129 130 0
 -129 -130 0
 131 132 0
 -131 -132 0
 133 134 0
 -133 -134 0
 135 136 0
 -135 -136 0
 137 138 0
 -137 -138 0
 139 140 0
 -139 -140 0
 141 142 0
 -141 -142 0
 143 144 0
 -143 -144 0
 145 146 0
 -145 -146 0
 147 148 0
 -147 -148 0
 149 150 0
 -149 -150 0
 151 152 0
 -151 -152 0
 153 154 0
 -153 -154 0
 155 156 0
 -155 -156 0
 157 158 0
 -157 -158 0
 159 160 0
 -159 -160 0
 161 162 0
 -161 -162 0
 163 164 0
 -163 -164 0
 165 166 0
 -165 -166 0
 167 168 0
 -167 -168 0
 169 170 0
 -169 -170 0
 171 172 0
 -171 -172 0
 173 174 0
 -173 -174 0
 175 176 0
 -175 -176 0
 177 178 0
 -177 -178 0
 179 180 0
 -179 -180 0
 181 182 0
 -181 -182 0
 183 184 0
 -183 -184 0
 185 186 0
 -185 -186 0
 187 188 0
 -187 -188 0
 189 190 0
 -189 -190 0
 191 192 0
 -191 -192 0
 193 194 0
 -193 -194 0
 195 196 0
 -195 -196 0
 197 198 0
 -197 -198 0
 199 200 0
 -199 -200 0
 -2 201 0
 -1 202 0
 -3 -1 203 0
 -3 -2 204 0
 -4 -2 205 0
 -4 -1 206 0
 -6 -3 207 0
 -5 -4 208 0
 -6 -4 209 0
 -5 -3 210 0
 -7 -5 211 0
 -7 -6 212 0
 -8 -6 213 0
 -8 -5 214 0
 -9 -7 0
 -9 -7 0
 -10 -8 0
 -11 -9 0
 -11 -9 0
 -12 -10 0
 -13 -11 0
 -13 -11 0
 -14 -12 0
 -15 -13 0
 -15 -13 0
 -16 -14 0
 -17 -15 0
 -17 -15 0
 -18 -16 0
 -19 -17 0
 -19 -17 0
 -20 -18 0
 -21 -2 0
 -21 -2 0
 -22 -1 0
 -23 -21 -4 0
 -23 -21 -4 0
 -23 -22 -3 0
 -23 -21 -4 0
 -23 -22 -3 0
 -24 -22 -4 0
 -23 -21 -4 0
 -23 -22 -3 0
 -24 -22 -4 0
 -24 -21 -3 0
 -26 -24 0
 -26 -24 0
 -25 -23 0
 -28 -8 0
 -28 -8 0
 -28 -25 0
 -28 -8 0
 -28 -25 0
 -27 -26 -7 0
 -29 -28 -10 215 0
 -29 -27 -10 216 0
 -29 -27 -9 217 0
 -29 -28 -9 218 0
 -30 -28 -9 219 0
 -30 -27 -9 220 0
 -30 -27 -10 221 0
 -30 -28 -10 222 0
 -31 -29 -11 223 0
 -31 -29 -12 224 0
 -31 -30 -12 225 0
 -31 -30 -11 226 0
 -32 -30 -11 227 0
 -32 -30 -12 228 0
 -32 -29 -12 229 0
 -32 -29 -11 230 0
 -34 -14 0
 -34 -14 0
 -33 -13 0
 -35 -34 -16 231 0
 -36 -34 -15 232 0
 -36 -33 -16 233 0
 -35 -33 -15 234 0
 -36 -33 -15 235 0
 -35 -33 -16 236 0
 -35 -34 -15 237 0
 -36 -34 -16 238 0
 -37 -35 -17 0
 -37 -35 -17 0
 -38 -36 0
 -37 -35 -17 0
 -38 -36 0
 -38 -18 0
 -39 -37 -20 239 0
 -39 -38 -20 240 0
 -39 -38 -19 241 0
 -40 -37 -19 242 0
 -39 -37 -19 243 0
 -40 -38 -19 244 0
 -40 -38 -20 245 0
 -40 -37 -20 246 0
 -41 -22 0
 -41 -22 0
 -42 -21 0
 -44 -42 -23 247 0
 -44 -42 -24 248 0
 -44 -41 -23 249 0
 -43 -41 -24 250 0
 -44 -41 -24 251 0
 -43 -41 -23 252 0
 -43 -42 -24 253 0
 -43 -42 -23 254 0
 -45 -25 0
 -45 -25 0
 -45 -43 0
 -45 -25 0
 -45 -43 0
 -46 -44 -26 0
 -47 -46 -27 255 0
 -48 -45 -27 256 0
 -48 -45 -28 257 0
 -47 -46 -28 258 0
 -48 -46 -28 259 0
 -47 -45 -28 260 0
 -47 -45 -27 261 0
 -48 -46 -27 262 0
 -49 -47 -30 263 0
 -49 -48 -29 264 0
 -50 -48 -30 265 0
 -50 -47 -29 266 0
 -49 -47 -29 267 0
 -49 -48 -30 268 0
 -50 -48 -29 269 0
 -50 -47 -30 270 0
 -52 -50 -32 271 0
 -51 -50 -31 272 0
 -51 -49 -32 273 0
 -51 -49 -31 274 0
 -52 -49 -31 275 0
 -52 -49 -32 276 0
 -52 -50 -31 277 0
 -51 -50 -32 278 0
 -53 -52 -33 279 0
 -53 -51 -34 280 0
 -54 -52 -34 281 0
 -53 -51 -33 282 0
 -54 -51 -33 283 0
 -53 -52 -34 284 0
 -54 -51 -34 285 0
 -54 -52 -33 286 0
 -56 -53 0
 -56 -53 0
 -55 -54 -36 0
 -56 -53 0
 -55 -54 -36 0
 -56 -35 0
 -57 -56 -37 287 0
 -57 -55 -38 288 0
 -58 -56 -38 289 0
 -57 -55 -37 290 0
 -58 -55 -37 291 0
 -57 -56 -38 292 0
 -58 -55 -38 293 0
 -58 -56 -37 294 0
 -59 -57 -40 0
 -59 -57 -40 0
 -60 -58 0
 -59 -57 -40 0
 -60 -58 0
 -60 -39 0
 -61 -41 295 0
 -61 -42 296 0
 -62 -42 297 0
 -62 -41 298 0
 -63 -61 -43 299 0
 -63 -62 -43 300 0
 -63 -62 -44 301 0
 -64 -61 -44 302 0
 -63 -61 -44 303 0
 -64 -62 -44 304 0
 -64 -62 -43 305 0
 -64 -61 -43 306 0
 -65 -46 0
 -65 -46 0
 -66 -45 0
 -67 -48 0
 -67 -48 0
 -68 -47 0
 -70 -50 0
 -70 -50 0
 -70 -67 0
 -70 -50 0
 -70 -67 0
 -69 -68 -49 0
 -71 -70 -52 307 0
 -71 -69 -51 308 0
 -72 -69 -52 309 0
 -71 -70 -51 310 0
 -72 -70 -51 311 0
 -71 -69 -52 312 0
 -72 -69 -51 313 0
 -72 -70 -52 314 0
 -74 -72 -53 315 0
 -74 -72 -54 316 0
 -74 -71 -53 317 0
 -74 -71 -54 318 0
 -73 -71 -54 319 0
 -73 -71 -53 320 0
 -73 -72 -54 321 0
 -73 -72 -53 322 0
 -75 -73 -56 0
 -75 -73 -56 0
 -76 -74 0
 -75 -73 -56 0
 -76 -74 0
 -76 -55 0
 -78 -75 -58 323 0
 -77 -75 -57 324 0
 -78 -76 -57 325 0
 -77 -76 -58 326 0
 -78 -76 -58 327 0
 -77 -76 -57 328 0
 -78 -75 -57 329 0
 -77 -75 -58 330 0
 -79 -60 0
 -79 -60 0
 -80 -59 0
 -81 -62 0
 -81 -62 0
 -82 -61 0
 -84 -64 0
 -84 -64 0
 -83 -63 0
 -86 -84 0
 -86 -84 0
 -85 -83 0
 -87 -86 -68 331 0
 -88 -86 -67 332 0
 -88 -85 -68 333 0
 -88 -85 -67 334 0
 -87 -85 -67 335 0
 -87 -85 -68 336 0
 -87 -86 -67 337 0
 -88 -86 -68 338 0
 -89 -87 -69 339 0
 -90 -87 -70 340 0
 -90 -88 -69 341 0
 -90 -88 -70 342 0
 -89 -88 -70 343 0
 -89 -88 -69 344 0
 -89 -87 -70 345 0
 -90 -87 -69 346 0
 -91 -89 -72 347 0
 -92 -90 -72 348 0
 -92 -89 -71 349 0
 -92 -90 -71 350 0
 -91 -90 -71 351 0
 -91 -89 -71 352 0
 -91 -90 -72 353 0
 -92 -89 -72 354 0
 -93 -92 -74 355 0
 -94 -91 -73 356 0
 -93 -91 -74 357 0
 -94 -92 -73 358 0
 -93 -92 -73 359 0
 -94 -91 -74 360 0
 -93 -91 -73 361 0
 -94 -92 -74 362 0
 -95 -93 -76 363 0
 -96 -94 -76 364 0
 -96 -93 -75 365 0
 -96 -94 -75 366 0
 -95 -94 -75 367 0
 -95 -93 -75 368 0
 -95 -94 -76 369 0
 -96 -93 -76 370 0
 -98 -95 -77 0
 -98 -95 -77 0
 -97 -96 0
 -98 -95 -77 0
 -97 -96 0
 -97 -78 0
 -99 -98 -80 371 0
 -100 -98 -79 372 0
 -99 -97 -79 373 0
 -100 -97 -80 374 0
 -99 -97 -80 375 0
 -100 -97 -79 376 0
 -99 -98 -79 377 0
 -100 -98 -80 378 0
 -101 -82 379 0
 -101 -81 380 0
 -102 -81 381 0
 -102 -82 382 0
 -104 -101 -83 383 0
 -104 -102 -83 384 0
 -103 -101 -84 385 0
 -104 -102 -84 386 0
 -103 -102 -84 387 0
 -104 -101 -84 388 0
 -103 -102 -83 389 0
 -103 -101 -83 390 0
 -106 -103 0
 -106 -103 0
 -105 -104 -86 0
 -106 -103 0
 -105 -104 -86 0
 -106 -85 0
 -107 -106 -87 391 0
 -108 -105 -88 392 0
 -108 -105 -87 393 0
 -107 -106 -88 394 0
 -108 -106 -88 395 0
 -107 -105 -87 396 0
 -107 -105 -88 397 0
 -108 -106 -87 398 0
 -109 -107 -90 399 0
 -110 -107 -89 400 0
 -109 -108 -89 401 0
 -109 -108 -90 402 0
 -110 -108 -90 403 0
 -110 -108 -89 404 0
 -109 -107 -89 405 0
 -110 -107 -90 406 0
 -111 -109 -92 407 0
 -111 -109 -91 408 0
 -112 -110 -92 409 0
 -111 -110 -91 410 0
 -112 -110 -91 411 0
 -111 -110 -92 412 0
 -112 -109 -91 413 0
 -112 -109 -92 414 0
 -113 -111 -94 0
 -113 -111 -94 0
 -114 -112 0
 -113 -111 -94 0
 -114 -112 0
 -114 -93 0
 -115 -114 -95 415 0
 -116 -114 -96 416 0
 -116 -113 -96 417 0
 -116 -113 -95 418 0
 -115 -113 -95 419 0
 -115 -113 -96 420 0
 -115 -114 -96 421 0
 -116 -114 -95 422 0
 -117 -115 -97 423 0
 -118 -115 -98 424 0
 -117 -116 -97 425 0
 -117 -116 -98 426 0
 -118 -116 -98 427 0
 -118 -116 -97 428 0
 -117 -115 -98 429 0
 -118 -115 -97 430 0
 -120 -117 -99 0
 -120 -117 -99 0
 -119 -118 0
 -120 -117 -99 0
 -119 -118 0
 -119 -100 0
 -121 -101 431 0
 -122 -102 432 0
 -121 -102 433 0
 -122 -101 434 0
 -123 -122 -104 435 0
 -123 -121 -104 436 0
 -123 -122 -103 437 0
 -124 -121 -103 438 0
 -123 -121 -103 439 0
 -124 -122 -103 440 0
 -124 -121 -104 441 0
 -124 -122 -104 442 0
 -125 -124 -105 443 0
 -126 -123 -105 444 0
 -125 -124 -106 445 0
 -125 -123 -106 446 0
 -126 -123 -106 447 0
 -126 -124 -106 448 0
 -125 -123 -105 449 0
 -126 -124 -105 450 0
 -127 -126 0
 -127 -126 0
 -128 -125 0
 -129 -128 -110 451 0
 -130 -127 -110 452 0
 -129 -128 -109 453 0
 -130 -127 -109 454 0
 -129 -127 -109 455 0
 -130 -128 -109 456 0
 -129 -127 -110 457 0
 -130 -128 -110 458 0
 -132 -129 -112 459 0
 -131 -129 -111 460 0
 -131 -130 -112 461 0
 -131 -130 -111 462 0
 -132 -130 -111 463 0
 -132 -130 -112 464 0
 -132 -129 -111 465 0
 -131 -129 -112 466 0
 -133 -131 -114 0
 -133 -131 -114 0
 -134 -132 0
 -133 -131 -114 0
 -134 -132 0
 -134 -113 0
 -136 -134 -115 467 0
 -136 -133 -116 468 0
 -136 -134 -116 469 0
 -136 -133 -115 470 0
 -135 -133 -115 471 0
 -135 -134 -116 472 0
 -135 -133 -116 473 0
 -135 -134 -115 474 0
 -138 -136 -118 475 0
 -137 -135 -118 476 0
 -137 -135 -117 477 0
 -138 -136 -117 478 0
 -137 -136 -117 479 0
 -138 -135 -117 480 0
 -138 -135 -118 481 0
 -137 -136 -118 482 0
 -139 -137 -120 483 0
 -140 -137 -119 484 0
 -140 -138 -120 485 0
 -139 -138 -119 486 0
 -140 -138 -119 487 0
 -139 -138 -120 488 0
 -139 -137 -119 489 0
 -140 -137 -120 490 0
 -142 -121 491 0
 -141 -122 492 0
 -142 -122 493 0
 -141 -121 494 0
 -143 -123 0
 -143 -123 0
 -143 -141 0
 -143 -123 0
 -143 -141 0
 -144 -142 -124 0
 -146 -143 -126 495 0
 -145 -144 -125 496 0
 -146 -143 -125 497 0
 -146 -144 -126 498 0
 -145 -144 -126 499 0
 -145 -143 -125 500 0
 -146 -144 -125 501 0
 -145 -143 -126 502 0
 -148 -146 -127 0
 -148 -146 -127 0
 -147 -128 0
 -148 -146 -127 0
 -147 -128 0
 -147 -145 0
 -149 -147 -130 0
 -149 -147 -130 0
 -149 -148 -129 0
 -149 -147 -130 0
 -149 -148 -129 0
 -150 -148 -130 0
 -149 -147 -130 0
 -149 -148 -129 0
 -150 -148 -130 0
 -150 -147 -129 0
 -151 -149 -132 0
 -151 -149 -132 0
 -152 -150 0
 -151 -149 -132 0
 -152 -150 0
 -152 -131 0
 -153 -133 0
 -153 -133 0
 -153 -151 0
 -153 -133 0
 -153 -151 0
 -154 -152 -134 0
 -155 -153 -135 503 0
 -156 -153 -136 504 0
 -155 -154 -136 505 0
 -156 -154 -135 506 0
 -155 -154 -135 507 0
 -156 -154 -136 508 0
 -155 -153 -136 509 0
 -156 -153 -135 510 0
 -158 -156 -137 511 0
 -158 -155 -138 512 0
 -158 -155 -137 513 0
 -158 -156 -138 514 0
 -157 -156 -138 515 0
 -157 -155 -137 516 0
 -157 -155 -138 517 0
 -157 -156 -137 518 0
 -159 -158 0
 -159 -158 0
 -160 -157 -140 0
 -159 -158 0
 -160 -157 -140 0
 -159 -139 0
 -161 -141 519 0
 -161 -142 520 0
 -162 -142 521 0
 -162 -141 522 0
 -164 -162 0
 -164 -162 0
 -163 -161 0
 -166 -164 -146 523 0
 -165 -163 -145 524 0
 -166 -163 -146 525 0
 -165 -164 -145 526 0
 -166 -164 -145 527 0
 -165 -163 -146 528 0
 -166 -163 -145 529 0
 -165 -164 -146 530 0
 -168 -166 -147 531 0
 -168 -165 -147 532 0
 -168 -165 -148 533 0
 -167 -166 -148 534 0
 -168 -166 -148 535 0
 -167 -165 -148 536 0
 -167 -165 -147 537 0
 -167 -166 -147 538 0
 -169 -168 -149 539 0
 -170 -167 -149 540 0
 -170 -168 -150 541 0
 -169 -167 -150 542 0
 -170 -167 -150 543 0
 -169 -168 -150 544 0
 -169 -167 -149 545 0
 -170 -168 -149 546 0
 -172 -169 -151 547 0
 -171 -170 -151 548 0
 -172 -170 -152 549 0
 -172 -169 -152 550 0
 -171 -169 -152 551 0
 -171 -170 -152 552 0
 -172 -170 -151 553 0
 -171 -169 -151 554 0
 -174 -172 -153 555 0
 -173 -171 -154 556 0
 -173 -171 -153 557 0
 -174 -172 -154 558 0
 -173 -172 -154 559 0
 -174 -171 -153 560 0
 -174 -171 -154 561 0
 -173 -172 -153 562 0
 -176 -174 -155 0
 -176 -174 -155 0
 -175 -156 0
 -176 -174 -155 0
 -175 -156 0
 -175 -173 0
 -177 -175 -157 0
 -177 -175 -157 0
 -178 -176 -157 0
 -177 -175 -157 0
 -178 -176 -157 0
 -178 -175 -158 0
 -177 -175 -157 0
 -178 -176 -157 0
 -178 -175 -158 0
 -177 -176 -158 0
 -180 -178 -160 563 0
 -180 -178 -159 564 0
 -180 -177 -160 565 0
 -179 -177 -159 566 0
 -180 -177 -159 567 0
 -179 -177 -160 568 0
 -179 -178 -159 569 0
 -179 -178 -160 570 0
 -181 -162 0
 -181 -162 0
 -182 -161 0
 -183 -182 -164 571 0
 -183 -181 -163 572 0
 -184 -182 -163 573 0
 -184 -181 -164 574 0
 -183 -181 -164 575 0
 -183 -182 -163 576 0
 -184 -181 -163 577 0
 -184 -182 -164 578 0
 -185 -183 -166 0
 -185 -183 -166 0
 -185 -184 -165 0
 -185 -183 -166 0
 -185 -184 -165 0
 -186 -184 -166 0
 -185 -183 -166 0
 -185 -184 -165 0
 -186 -184 -166 0
 -186 -183 -165 0
 -188 -185 -167 0
 -188 -185 -167 0
 -187 -186 0
 -188 -185 -167 0
 -187 -186 0
 -187 -168 0
 -189 -188 -170 579 0
 -190 -188 -169 580 0
 -190 -187 -169 581 0
 -190 -187 -170 582 0
 -189 -187 -170 583 0
 -189 -187 -169 584 0
 -189 -188 -169 585 0
 -190 -188 -170 586 0
 -191 -171 0
 -191 -171 0
 -191 -189 0
 -191 -171 0
 -191 -189 0
 -192 -190 -172 0
 -193 -191 -173 0
 -193 -191 -173 0
 -194 -192 -173 0
 -193 -191 -173 0
 -194 -192 -173 0
 -194 -191 -174 0
 -193 -191 -173 0
 -194 -192 -173 0
 -194 -191 -174 0
 -193 -192 -174 0
 -195 -193 -176 0
 -195 -193 -176 0
 -196 -194 0
 -195 -193 -176 0
 -196 -194 0
 -196 -175 0
 -197 -177 0
 -197 -177 0
 -197 -195 0
 -197 -177 0
 -197 -195 0
 -198 -196 -178 0
 -200 -198 -179 587 0
 -199 -197 -180 588 0
 -200 -197 -179 589 0
 -200 -198 -180 590 0
 -199 -198 -180 591 0
 -199 -197 -179 592 0
 -200 -197 -180 593 0
 -199 -198 -179 594 0
